p cnf 50 15
x 1 3 4 -7 8 -11 12 13 14 15 -17 -18 23 -25 -26 -27 -30 31 33 36 -37 -38 -40 42 44 45 -46 -47 -48 -49 0
x 2 -3 -4 5 6 7 -8 -10 -11 -12 14 -15 -16 -18 -20 -22 -24 25 32 36 -37 40 41 42 -43 46 -47 49 0
x 1 -4 14 16 -18 21 -24 -27 -28 30 32 -34 -36 38 -39 -40 -44 45 -46 -48 -49 0
x 2 -3 5 -6 -8 9 -15 16 -18 22 -23 24 -28 -29 -30 -35 -37 38 39 -41 45 46 -47 48 0
x -2 -3 4 7 8 9 -11 13 -14 17 -18 19 20 -25 -26 29 30 31 32 33 -36 -39 41 44 -45 -46 47 0
x -1 3 5 6 -8 -9 -10 13 14 -15 -17 19 -21 22 23 24 25 26 28 -29 30 -31 33 -41 42 43 -44 45 48 49 0
x -1 -2 3 4 12 14 -15 -17 19 22 26 29 33 -36 37 -38 -40 42 -44 45 46 -47 48 49 50 0
x -1 2 4 -6 7 9 -10 -13 -15 16 -17 19 -21 -26 -28 29 30 -33 37 -38 39 43 -44 45 47 48 49 0
x 1 -2 -5 -8 -9 13 -15 16 17 18 -19 -21 -22 -25 -27 -30 -31 -32 35 38 39 -41 42 -44 46 -48 -49 0
x -1 -3 -7 -8 9 -10 11 12 -13 14 16 21 -23 -24 -26 -27 32 37 -38 -40 41 -43 44 -47 48 0
x -1 -3 -4 -6 -12 13 -14 18 -21 24 25 26 29 31 -32 33 -41 -42 43 -44 45 -46 47 -48 49 -50 0
x -2 -3 -7 -8 -9 10 11 13 15 17 -19 -21 -22 25 -27 -31 -33 34 35 37 39 -41 -42 -44 -47 -48 0
x -1 -2 4 7 8 9 -12 16 -17 18 -20 21 24 -27 -28 32 33 -35 36 -37 -38 -42 -47 -48 -50 0
x -2 3 5 6 7 8 -10 12 13 -14 -15 -16 17 19 20 23 -26 -27 30 31 32 33 35 -36 -39 45 0
x 4 5 7 -10 -11 -13 -15 -16 17 -21 27 28 30 31 34 39 42 43 44 48 0
g -15